
n_res = 4;
rcap = [48, 49, 592, 611];
rtype = [1, 1, 2, 2];
n_tasks = 100;
modes =  [{1, 2, 3}, {4, 5, 6}, {7, 8, 9}, {10, 11, 12}, {13, 14, 15}, {16, 17, 18}, {19, 20, 21}, {22, 23, 24}, {25, 26, 27}, {28, 29, 30}, {31, 32, 33}, {34, 35, 36}, {37, 38, 39}, {40, 41, 42}, {43, 44, 45}, {46, 47, 48}, {49, 50, 51}, {52, 53, 54}, {55, 56, 57}, {58, 59, 60}, {61, 62, 63}, {64, 65, 66}, {67, 68, 69}, {70, 71, 72}, {73, 74, 75}, {76, 77, 78}, {79, 80, 81}, {82, 83, 84}, {85, 86, 87}, {88, 89, 90}, {91, 92, 93}, {94, 95, 96}, {97, 98, 99}, {100, 101, 102}, {103, 104, 105}, {106, 107, 108}, {109, 110, 111}, {112, 113, 114}, {115, 116, 117}, {118, 119, 120}, {121, 122, 123}, {124, 125, 126}, {127, 128, 129}, {130, 131, 132}, {133, 134, 135}, {136, 137, 138}, {139, 140, 141}, {142, 143, 144}, {145, 146, 147}, {148, 149, 150}, {151, 152, 153}, {154, 155, 156}, {157, 158, 159}, {160, 161, 162}, {163, 164, 165}, {166, 167, 168}, {169, 170, 171}, {172, 173, 174}, {175, 176, 177}, {178, 179, 180}, {181, 182, 183}, {184, 185, 186}, {187, 188, 189}, {190, 191, 192}, {193, 194, 195}, {196, 197, 198}, {199, 200, 201}, {202, 203, 204}, {205, 206, 207}, {208, 209, 210}, {211, 212, 213}, {214, 215, 216}, {217, 218, 219}, {220, 221, 222}, {223, 224, 225}, {226, 227, 228}, {229, 230, 231}, {232, 233, 234}, {235, 236, 237}, {238, 239, 240}, {241, 242, 243}, {244, 245, 246}, {247, 248, 249}, {250, 251, 252}, {253, 254, 255}, {256, 257, 258}, {259, 260, 261}, {262, 263, 264}, {265, 266, 267}, {268, 269, 270}, {271, 272, 273}, {274, 275, 276}, {277, 278, 279}, {280, 281, 282}, {283, 284, 285}, {286, 287, 288}, {289, 290, 291}, {292, 293, 294}, {295, 296, 297}, {298, 299, 300}];
succ =  [{52, 43, 41, 35, 34, 28, 23, 17, 14}, {51, 34, 28, 23, 12, 11}, {42, 27, 22, 14}, {55, 51, 48, 47, 45, 44, 35, 34, 33, 32, 22}, {41, 40, 35, 31, 29, 25, 16}, {62, 59, 55, 51, 48, 47, 42, 38, 36, 34, 33, 32}, {62, 50, 48, 47, 44, 43, 41, 40, 33, 28}, {68, 62, 59, 54, 52, 51, 49, 48, 47, 46, 45, 42, 40, 38}, {73, 67, 65, 62, 55, 54, 53, 52, 51, 47, 46, 38, 35, 32}, {66, 65, 62, 59, 54, 53, 52, 48, 46, 45, 42, 37, 32}, {66, 62, 55, 50, 49, 48, 47, 46, 45, 43, 41, 40}, {66, 65, 59, 54, 52, 50, 49, 48, 47, 46, 45, 33}, {66, 65, 59, 54, 53, 52, 51, 47, 46, 45, 33, 32}, {66, 65, 59, 54, 51, 50, 48, 47, 45, 37, 33}, {68, 62, 55, 52, 48, 35, 34}, {73, 67, 66, 63, 62, 59, 54, 53, 51, 46, 45, 32}, {68, 65, 62, 60, 54, 53, 51, 50, 48, 47, 46, 38}, {73, 68, 67, 65, 61, 55, 52, 47, 36, 35}, {66, 65, 62, 59, 52, 51, 50, 49, 47, 46, 33}, {73, 72, 68, 66, 62, 59, 51, 49, 40, 34}, {73, 67, 63, 62, 61, 54, 52, 49, 46, 41, 38}, {73, 66, 63, 62, 54, 52, 46, 41, 40}, {62, 55, 53, 49, 48, 47, 45, 40}, {70, 68, 65, 62, 55, 49, 48, 36}, {73, 72, 70, 68, 67, 66, 61, 59, 55, 54, 53, 49, 46}, {73, 70, 68, 67, 65, 63, 61, 59, 54, 36}, {73, 67, 61, 54, 52, 35}, {73, 68, 67, 65, 61, 59, 45, 36}, {65, 61, 60, 56, 54, 49, 48, 47}, {77, 72, 70, 68, 67, 66, 64, 57, 56, 55, 50}, {71, 65, 63, 52, 49, 46}, {98, 72, 70, 68, 64, 60, 56, 50, 49}, {100, 92, 77, 73, 72, 70, 68, 61, 60, 58, 57, 56}, {100, 98, 96, 77, 76, 75, 70, 65, 63, 61, 56, 54, 53}, {71, 66, 64, 63, 59, 57, 56, 49}, {100, 99, 77, 72, 71, 66, 60, 46}, {99, 94, 77, 73, 71, 70, 64, 58, 57, 56, 55}, {100, 99, 98, 96, 92, 77, 76, 72, 71, 70, 66, 64, 58, 56}, {100, 99, 96, 92, 77, 73, 71, 70, 68, 67, 64, 57, 56}, {100, 97, 92, 77, 74, 70, 67, 65, 61, 60, 58, 57}, {100, 72, 70, 64, 60, 57, 56, 53}, {98, 75, 73, 72, 64, 56, 50}, {97, 96, 94, 92, 77, 73, 70, 69, 68, 65, 64, 58, 57}, {100, 99, 98, 97, 95, 75, 71, 70, 60, 54}, {99, 96, 95, 94, 77, 58, 57, 56}, {94, 92, 64, 58, 57, 56}, {96, 95, 94, 92, 83, 71, 70, 58, 57}, {98, 96, 93, 90, 88, 84, 81, 74, 73, 72, 71, 67, 64, 63}, {100, 97, 96, 95, 92, 90, 89, 86, 83, 78, 77, 75, 74, 58}, {100, 92, 86, 83, 78, 76, 61, 58}, {100, 97, 96, 93, 92, 90, 89, 88, 86, 85, 84, 83, 80, 76, 74, 69}, {98, 97, 94, 92, 89, 83, 82, 76, 75, 72, 70, 60}, {99, 97, 94, 92, 89, 86, 83, 74, 69, 58}, {92, 90, 89, 86, 83, 74, 69, 58}, {93, 92, 89, 87, 85, 74, 60}, {97, 90, 89, 86, 85, 84, 83, 81, 80, 74, 69}, {98, 91, 89, 88, 87, 86, 85, 82, 79, 78, 76, 75}, {93, 91, 88, 87, 85, 84, 81, 80, 79}, {88, 87, 85, 84, 83, 79, 78, 75}, {96, 90, 86, 84, 81, 80, 79, 78}, {99, 95, 94, 84, 81, 71}, {100, 83, 81, 80, 79, 74}, {99, 92, 83, 82, 79, 78}, {95, 83, 82, 79, 78}, {88, 83, 82, 80, 78}, {94, 86, 81, 75}, {94, 80, 79, 78}, {89, 81, 79, 78}, {87, 79, 78}, {90, 79, 78}, {82, 80}, {91, 78}, {85, 78}, {82}, {80}, {81}, {79}, {}, {}, {}, {}, {}, {}, {}, {}, {}, {}, {}, {}, {}, {}, {}, {}, {}, {}, {}, {}, {}, {}, {}];
n_opt = 300;
dur = [4, 7, 8, 4, 9, 10, 1, 5, 10, 5, 6, 10, 2, 4, 7, 1, 3, 9, 1, 3, 5, 3, 4, 9, 1, 2, 9, 1, 4, 10, 2, 4, 7, 5, 6, 7, 6, 8, 9, 8, 9, 10, 1, 7, 9, 1, 3, 10, 1, 8, 9, 3, 4, 6, 1, 6, 9, 7, 7, 8, 1, 4, 10, 1, 4, 8, 4, 5, 7, 2, 4, 10, 5, 8, 9, 1, 5, 6, 1, 4, 8, 8, 9, 10, 3, 4, 5, 1, 4, 6, 1, 6, 9, 1, 4, 7, 1, 5, 8, 1, 3, 9, 2, 3, 10, 2, 6, 8, 5, 9, 10, 3, 6, 9, 6, 9, 10, 1, 6, 8, 2, 4, 10, 2, 7, 10, 5, 6, 10, 2, 3, 6, 3, 4, 6, 3, 7, 8, 6, 7, 8, 1, 2, 3, 1, 5, 6, 1, 7, 9, 2, 5, 7, 3, 5, 6, 4, 5, 8, 4, 9, 10, 7, 8, 9, 1, 5, 8, 1, 6, 7, 1, 8, 9, 4, 7, 8, 1, 5, 8, 1, 5, 7, 1, 2, 10, 3, 6, 8, 6, 8, 10, 2, 6, 7, 2, 3, 4, 3, 7, 10, 1, 9, 10, 4, 7, 8, 1, 9, 10, 4, 6, 7, 6, 8, 10, 1, 3, 5, 5, 7, 8, 2, 4, 6, 6, 7, 8, 4, 6, 8, 2, 3, 5, 3, 4, 9, 6, 7, 9, 3, 5, 7, 1, 2, 7, 3, 4, 6, 4, 6, 10, 4, 7, 10, 4, 5, 7, 1, 4, 10, 1, 9, 10, 3, 7, 10, 2, 5, 8, 3, 5, 8, 2, 4, 5, 3, 7, 10, 1, 3, 6, 1, 3, 6, 2, 3, 10, 6, 7, 8, 1, 4, 5, 3, 6, 10, 2, 5, 7];
rreq = [|2, 1, 1, 2, 2, 1, 3, 2, 2, 1, 1, 1, 3, 3, 3, 4, 4, 4, 4, 3, 2, 2, 1, 1, 4, 3, 3, 4, 4, 4, 1, 1, 1, 4, 3, 2, 3, 2, 2, 1, 1, 1, 3, 1, 1, 3, 3, 3, 3, 3, 3, 5, 3, 3, 4, 4, 3, 2, 1, 1, 2, 2, 2, 3, 3, 1, 3, 2, 2, 4, 3, 3, 2, 2, 2, 3, 1, 1, 2, 2, 2, 2, 2, 2, 2, 2, 1, 4, 3, 1, 5, 5, 5, 4, 3, 2, 4, 2, 1, 4, 2, 2, 4, 2, 1, 1, 1, 1, 3, 3, 3, 5, 2, 1, 4, 4, 4, 4, 2, 2, 4, 3, 2, 4, 3, 3, 1, 1, 1, 5, 3, 2, 5, 3, 3, 5, 4, 4, 3, 3, 2, 5, 3, 1, 3, 3, 2, 4, 3, 3, 4, 3, 3, 5, 3, 2, 5, 4, 2, 3, 2, 2, 3, 3, 2, 5, 3, 1, 2, 1, 1, 4, 4, 4, 3, 3, 3, 1, 1, 1, 4, 2, 2, 2, 2, 1, 4, 4, 4, 3, 3, 3, 4, 3, 3, 3, 3, 3, 5, 4, 4, 4, 4, 4, 5, 3, 1, 3, 3, 3, 4, 4, 3, 1, 1, 1, 2, 2, 1, 3, 3, 3, 3, 3, 1, 1, 1, 1, 1, 1, 1, 5, 3, 3, 3, 3, 3, 4, 2, 2, 4, 2, 2, 4, 3, 2, 5, 4, 4, 4, 3, 3, 5, 3, 1, 2, 1, 1, 1, 1, 1, 1, 1, 1, 3, 3, 3, 2, 1, 1, 1, 1, 1, 4, 3, 3, 4, 4, 4, 1, 1, 1, 3, 2, 2, 3, 3, 3, 2, 1, 1, 1, 1, 1, 1, 1, 1, 2, 1, 1
 |3, 2, 2, 4, 3, 2, 5, 3, 2, 1, 1, 1, 2, 1, 1, 4, 4, 2, 1, 1, 1, 4, 3, 3, 4, 4, 4, 4, 3, 3, 5, 2, 1, 5, 5, 5, 4, 4, 3, 4, 3, 2, 1, 1, 1, 3, 2, 2, 2, 2, 2, 1, 1, 1, 5, 2, 1, 3, 2, 2, 2, 2, 1, 3, 2, 2, 5, 4, 3, 5, 3, 3, 3, 2, 1, 3, 3, 3, 1, 1, 1, 1, 1, 1, 2, 1, 1, 4, 4, 4, 3, 2, 2, 4, 3, 2, 3, 2, 2, 4, 4, 4, 1, 1, 1, 5, 5, 5, 3, 2, 2, 2, 1, 1, 4, 3, 2, 4, 2, 2, 4, 2, 2, 1, 1, 1, 3, 3, 3, 4, 2, 2, 5, 5, 5, 5, 4, 3, 3, 2, 2, 2, 2, 2, 3, 2, 1, 4, 4, 4, 4, 4, 4, 4, 3, 1, 3, 2, 1, 3, 2, 2, 5, 3, 1, 4, 4, 4, 5, 4, 3, 3, 3, 3, 3, 3, 2, 5, 5, 5, 3, 3, 2, 2, 1, 1, 4, 4, 4, 5, 5, 5, 2, 1, 1, 3, 2, 2, 2, 1, 1, 4, 2, 1, 2, 2, 1, 4, 3, 3, 3, 3, 3, 3, 3, 3, 1, 1, 1, 4, 3, 3, 3, 2, 2, 3, 3, 2, 2, 2, 2, 5, 5, 5, 3, 3, 1, 3, 1, 1, 4, 2, 2, 4, 4, 4, 2, 2, 2, 1, 1, 1, 4, 4, 3, 5, 5, 5, 4, 2, 2, 4, 4, 4, 3, 3, 3, 2, 1, 1, 3, 2, 2, 5, 5, 5, 2, 2, 2, 4, 3, 3, 1, 1, 1, 3, 3, 2, 4, 3, 2, 3, 3, 3, 5, 5, 5, 4, 2, 1
 |8, 4, 3, 7, 6, 4, 1, 1, 1, 9, 9, 9, 5, 5, 3, 9, 6, 6, 7, 6, 5, 8, 7, 6, 5, 4, 3, 8, 7, 5, 6, 4, 4, 6, 5, 4, 6, 6, 6, 9, 8, 8, 7, 7, 6, 3, 3, 2, 1, 1, 1, 8, 5, 5, 7, 7, 7, 7, 5, 5, 4, 4, 3, 6, 4, 4, 8, 6, 6, 8, 6, 6, 9, 8, 8, 9, 8, 8, 3, 2, 1, 7, 7, 1, 8, 8, 8, 2, 1, 1, 3, 3, 3, 2, 2, 2, 6, 6, 6, 8, 7, 6, 8, 5, 2, 7, 6, 6, 7, 4, 2, 6, 5, 5, 6, 4, 2, 4, 2, 2, 8, 8, 6, 5, 3, 1, 5, 5, 5, 2, 2, 2, 8, 8, 4, 4, 4, 4, 6, 5, 4, 7, 5, 3, 8, 7, 7, 7, 6, 2, 10, 8, 5, 9, 9, 9, 6, 4, 4, 7, 6, 6, 8, 6, 1, 6, 5, 4, 7, 6, 6, 4, 3, 3, 4, 3, 2, 7, 3, 2, 6, 5, 4, 4, 2, 1, 6, 6, 6, 5, 4, 3, 9, 5, 3, 7, 4, 3, 4, 3, 2, 5, 4, 3, 7, 5, 5, 8, 7, 5, 8, 7, 7, 8, 7, 6, 8, 7, 6, 9, 4, 1, 5, 5, 5, 10, 10, 10, 4, 4, 3, 3, 2, 2, 8, 7, 7, 10, 7, 4, 7, 6, 6, 9, 8, 8, 5, 2, 2, 6, 6, 6, 8, 7, 7, 8, 7, 6, 5, 4, 2, 9, 8, 7, 10, 6, 5, 7, 4, 3, 10, 8, 8, 7, 6, 4, 7, 5, 2, 9, 8, 8, 5, 3, 1, 6, 5, 2, 3, 2, 2, 8, 3, 3, 6, 3, 1, 3, 2, 2
 |10, 8, 8, 5, 4, 4, 7, 6, 4, 8, 6, 5, 3, 2, 2, 7, 6, 4, 8, 7, 5, 7, 7, 4, 7, 7, 6, 10, 8, 8, 10, 9, 9, 5, 4, 3, 5, 5, 5, 9, 7, 5, 6, 6, 4, 6, 6, 4, 9, 4, 2, 8, 6, 5, 6, 4, 4, 6, 7, 6, 7, 6, 5, 7, 3, 1, 5, 5, 5, 7, 5, 4, 8, 6, 6, 8, 5, 3, 9, 9, 7, 8, 7, 7, 7, 7, 7, 9, 5, 1, 2, 2, 1, 5, 4, 4, 2, 1, 1, 6, 5, 5, 3, 2, 2, 8, 7, 6, 7, 5, 4, 7, 4, 3, 5, 4, 1, 9, 7, 6, 8, 6, 4, 3, 3, 1, 8, 7, 6, 6, 4, 2, 2, 2, 2, 8, 5, 2, 5, 5, 5, 4, 3, 3, 4, 4, 4, 10, 5, 1, 4, 3, 2, 4, 3, 3, 8, 8, 8, 8, 7, 6, 7, 5, 5, 8, 7, 6, 7, 7, 7, 8, 6, 5, 7, 7, 7, 9, 9, 9, 7, 5, 5, 6, 4, 3, 7, 6, 4, 2, 2, 2, 7, 6, 5, 5, 5, 2, 6, 4, 4, 7, 3, 3, 9, 7, 5, 10, 5, 3, 8, 8, 8, 10, 10, 10, 4, 4, 4, 7, 3, 2, 4, 3, 3, 5, 4, 5, 8, 5, 3, 4, 3, 2, 7, 7, 7, 6, 4, 3, 5, 5, 4, 5, 3, 2, 6, 5, 4, 9, 8, 6, 8, 6, 4, 6, 6, 6, 7, 7, 7, 6, 4, 4, 8, 8, 8, 6, 6, 6, 4, 3, 2, 10, 7, 7, 8, 7, 7, 4, 3, 2, 10, 10, 10, 9, 9, 8, 2, 1, 1, 8, 7, 4, 8, 8, 7, 6, 6, 3|];